NAME : X_18_seed_123_id_6
TYPE : CVRP
DIMENSION : 181
EDGE_WEIGHT_TYPE : EUC_2D
CAPACITY : 8
NODE_COORD_SECTION
1	187	603
2	391	49
3	903	489
4	238	241
5	345	585
6	281	850
7	813	2
8	462	60
9	299	582
10	872	529
11	433	82
12	167	149
13	379	554
14	783	10
15	366	558
16	867	34
17	293	825
18	121	175
19	825	366
20	826	547
21	271	86
22	880	703
23	368	93
24	409	83
25	918	452
26	845	15
27	302	44
28	884	508
29	131	207
30	298	843
31	184	819
32	264	597
33	406	395
34	955	457
35	845	70
36	392	53
37	304	578
38	426	104
39	258	821
40	347	641
41	330	833
42	923	503
43	351	1000
44	320	559
45	224	917
46	303	516
47	348	49
48	303	829
49	141	864
50	279	887
51	139	209
52	812	66
53	263	226
54	906	382
55	810	1
56	866	517
57	269	888
58	903	484
59	378	61
60	321	300
61	639	574
62	449	15
63	189	574
64	188	188
65	911	443
66	305	683
67	833	24
68	321	106
69	909	482
70	414	134
71	256	825
72	300	524
73	262	198
74	230	242
75	352	591
76	642	34
77	229	185
78	765	89
79	417	433
80	351	41
81	342	665
82	455	51
83	337	142
84	170	357
85	998	505
86	430	79
87	400	121
88	368	595
89	803	491
90	400	48
91	241	234
92	974	430
93	345	203
94	323	540
95	323	854
96	34	259
97	245	897
98	372	583
99	378	129
100	316	44
101	948	407
102	328	540
103	436	114
104	294	844
105	217	298
106	244	888
107	357	627
108	836	329
109	36	752
110	287	137
111	719	368
112	120	947
113	796	292
114	377	909
115	274	251
116	996	490
117	187	181
118	113	421
119	334	131
120	874	538
121	265	158
122	364	7
123	279	544
124	368	563
125	377	551
126	285	316
127	261	581
128	217	274
129	481	145
130	335	809
131	974	604
132	364	113
133	341	597
134	790	6
135	258	854
136	229	216
137	223	261
138	384	108
139	481	53
140	625	210
141	243	279
142	840	23
143	117	131
144	795	125
145	942	565
146	368	528
147	367	990
148	270	905
149	936	582
150	428	557
151	233	197
152	244	245
153	229	841
154	256	245
155	972	116
156	839	25
157	464	540
158	338	770
159	434	75
160	969	468
161	51	178
162	251	764
163	268	830
164	281	800
165	426	38
166	827	0
167	861	77
168	272	919
169	387	606
170	276	189
171	752	57
172	814	63
173	428	80
174	800	15
175	400	50
176	403	76
177	316	784
178	930	504
179	373	971
180	221	200
181	856	453
DEMAND_SECTION
1	0
2	1
3	1
4	1
5	1
6	1
7	1
8	1
9	1
10	1
11	1
12	1
13	1
14	1
15	1
16	1
17	1
18	1
19	1
20	1
21	1
22	1
23	1
24	1
25	1
26	1
27	1
28	1
29	1
30	1
31	1
32	1
33	1
34	1
35	1
36	1
37	1
38	1
39	1
40	1
41	1
42	1
43	1
44	1
45	1
46	1
47	1
48	1
49	1
50	1
51	1
52	1
53	1
54	1
55	1
56	1
57	1
58	1
59	1
60	1
61	1
62	1
63	1
64	1
65	1
66	1
67	1
68	1
69	1
70	1
71	1
72	1
73	1
74	1
75	1
76	1
77	1
78	1
79	1
80	1
81	1
82	1
83	1
84	1
85	1
86	1
87	1
88	1
89	1
90	1
91	1
92	1
93	1
94	1
95	1
96	1
97	1
98	1
99	1
100	1
101	1
102	1
103	1
104	1
105	1
106	1
107	1
108	1
109	1
110	1
111	1
112	1
113	1
114	1
115	1
116	1
117	1
118	1
119	1
120	1
121	1
122	1
123	1
124	1
125	1
126	1
127	1
128	1
129	1
130	1
131	1
132	1
133	1
134	1
135	1
136	1
137	1
138	1
139	1
140	1
141	1
142	1
143	1
144	1
145	1
146	1
147	1
148	1
149	1
150	1
151	1
152	1
153	1
154	1
155	1
156	1
157	1
158	1
159	1
160	1
161	1
162	1
163	1
164	1
165	1
166	1
167	1
168	1
169	1
170	1
171	1
172	1
173	1
174	1
175	1
176	1
177	1
178	1
179	1
180	1
181	1
DEPOT_SECTION
1
-1
EOF
